# SETS POPULATION
set M := CALORIES PROTEINS CALCIUM;
set N := BREAD MILK EGGS MEAT SWEETS;
# PARAMETERS POPULATION
param amount_portion : BREAD MILK EGGS MEAT SWEETS :=
CALORIES 150 120 160 230 450
PROTEINS 4 8 15 14 4
CALCIUM 2 285 54 80 22;
param cost :=
BREAD 3
MILK 2
EGGS 3
MEAT 19
SWEETS 15;
param max_portions :=
BREAD 3
MILK 4
EGGS 2
MEAT 3
SWEETS 2;
param minimum_amount :=
CALORIES 2000
PROTEINS 50
CALCIUM 700;
